p cnf 33 42
-11 22 0 
-8 24 0 
-23 2 5 16 0 
-9 28 0 
-11 33 0 
-29 2 0 
-2 23 0 
-31 4 0 
-19 6 0 
-28 9 0 
-30 7 0 
-16 23 0 
-21 3 0 
-7 30 0 
-5 23 0 
-11 20 0 
-17 1 6 0 
9 14 15 0 
4 10 0 
-15 32 0 
-12 27 0 
-9 25 0 
-1 17 0 
-18 1 2 0 
-22 1 11 0 
-2 29 0 
12 15 0 
-13 26 0 
-33 11 0 
-6 17 0 
-20 11 0 
-1 22 0 
-6 19 0 
-4 31 0 
-27 12 0 
-2 18 0 
-26 13 0 
-3 21 0 
-1 18 0 
-32 15 0 
-25 9 0 
-24 8 0 
